# Input file for simulation of diglyme in the NPT ensemble
# NB this uses the CHARMM-style dihedral, not the OPLS-style as reported in the paper
# Andrew Ricardo Puente, October 2019 

# ------------------------ INITIALIZATION ----------------------------
units 		real
dimension	3
boundary	p	p	p
atom_style	full

# ------------------------ FORCE FIELDS ------------------------------
atom_style      full
bond_style      harmonic
angle_style     harmonic
dihedral_style  charmm
improper_style  harmonic

kspace_style    none
pair_style      lj/charmmfsw/coul/charmmfsh 10.0 12.0

special_bonds	lj/coul 0.0 0.0 0.5 
special_bonds	charmm dihedral yes

#need to quadrically smooth over last .5 A

# ----------------------- LOAD IN BOX ----------------------------
read_data diglyme
# ------------------------- SETTINGS ---------------------------------

######################################
# MINIMIZATION
min_style cg
minimize 1.0e-4 1.0e-6 100 1000


# EQUILIBRATION
reset_timestep	0
timestep 1.0 #fs
velocity all create 298.15 45856 
fix 1 all npt temp 298.15 298.15 100.0 iso 1.0 1.0 1000.0

# Set thermo output
thermo 500
thermo_style custom step temp vol press pe ke lx evdwl ecoul ebond eangle edihed elong etail emol enthalpy

# exclude intermolecular interactions
neigh_modify exclude molecule/inter all

# Set trajectory output
dump 		trj all custom 500 gas6.lammpstrj element mass id mol type x y z ix iy iz
dump_modify	trj append yes 

log gas6.log 

#run equilibration
run_style verlet
run 50000000 #50 ns run

write_restart gas6.restart

print "All done"
